# Problem from Gecode/examples/minesweeper.cc  problem 7

param r := 9;
param c := 9;
param game: 1 2 3 4 5 6 7 8 9 :=
    1   . 1 . . . . . 3 . 
    2   . . . 3 4 3 . . . 
    3   2 4 4 . . . 4 4 3 
    4   . . . 4 . 4 . . . 
    5   . 4 . 4 . 3 . 6 . 
    6   . . . 4 . 3 . . . 
    7   1 2 3 . . . 1 3 3 
    8   . . . 3 2 2 . . . 
    9   . 2 . . . . . 3 . 
;
